/*********************************************
 * OPL 20.1.0.0 Data
 * Author: anton
 * Creation Date: 19 nov 2022 at 10:09:42
 *********************************************/

 
 dolci={A, B, C};
 
 basi={mandorle, noci canditi};
 
 
 produ=[[200, 150, 50]
	[100, 75, 0]
	[0, 125, 40]];
	
disp=[14000, 16000, 10000];

inutil=[2, 3, 1];

vend=[15, 20, 16];